73381.62
48 47 45 43 44 46 49 51 53 55 57 61 62 64 66 68 70 71 69 67 65 63 60 59 58 42 33 31 32 34 35 36 37 39 41 40 38 13 12 11 9 7 6 8 10 128 126 124 122 120 121 123 125 127 129 131 130 119 118 117 107 106 98 101 104 102 103 105 100 73 74 76 77 75 72 99 97 96 95 93 94 108 109 110 92 89 88 112 113 87 86 85 84 83 82 81 80 78 79 90 91 111 132 133 134 135 136 137 138 139 140 141 142 115 114 116 143 1 3 5 4 2 0 18 19 20 21 22 23 24 25 16 17 26 27 29 15 14 30 28 56 54 52 50